c CNF file corresponding to a (partial) station packing problem.
p cnf 5513 229
1 2 3 4 5 6 7 8 9 10 11 12 13 14 0
-1 -2 0
-1 -3 0
-1 -4 0
-1 -5 0
-1 -6 0
-1 -7 0
-1 -8 0
-1 -9 0
-1 -10 0
-1 -11 0
-1 -12 0
-1 -13 0
-1 -14 0
-2 -3 0
-2 -4 0
-2 -5 0
-2 -6 0
-2 -7 0
-2 -8 0
-2 -9 0
-2 -10 0
-2 -11 0
-2 -12 0
-2 -13 0
-2 -14 0
-3 -4 0
-3 -5 0
-3 -6 0
-3 -7 0
-3 -8 0
-3 -9 0
-3 -10 0
-3 -11 0
-3 -12 0
-3 -13 0
-3 -14 0
-4 -5 0
-4 -6 0
-4 -7 0
-4 -8 0
-4 -9 0
-4 -10 0
-4 -11 0
-4 -12 0
-4 -13 0
-4 -14 0
-5 -6 0
-5 -7 0
-5 -8 0
-5 -9 0
-5 -10 0
-5 -11 0
-5 -12 0
-5 -13 0
-5 -14 0
-6 -7 0
-6 -8 0
-6 -9 0
-6 -10 0
-6 -11 0
-6 -12 0
-6 -13 0
-6 -14 0
-7 -8 0
-7 -9 0
-7 -10 0
-7 -11 0
-7 -12 0
-7 -13 0
-7 -14 0
-8 -9 0
-8 -10 0
-8 -11 0
-8 -12 0
-8 -13 0
-8 -14 0
-9 -10 0
-9 -11 0
-9 -12 0
-9 -13 0
-9 -14 0
-10 -11 0
-10 -12 0
-10 -13 0
-10 -14 0
-11 -12 0
-11 -13 0
-11 -14 0
-12 -13 0
-12 -14 0
-13 -14 0
5497 5498 5499 5500 5501 5502 5503 5504 5505 5506 5507 5508 5509 5510 5511 5512 5513 0
-5497 -5498 0
-5497 -5499 0
-5497 -5500 0
-5497 -5501 0
-5497 -5502 0
-5497 -5503 0
-5497 -5504 0
-5497 -5505 0
-5497 -5506 0
-5497 -5507 0
-5497 -5508 0
-5497 -5509 0
-5497 -5510 0
-5497 -5511 0
-5497 -5512 0
-5497 -5513 0
-5498 -5499 0
-5498 -5500 0
-5498 -5501 0
-5498 -5502 0
-5498 -5503 0
-5498 -5504 0
-5498 -5505 0
-5498 -5506 0
-5498 -5507 0
-5498 -5508 0
-5498 -5509 0
-5498 -5510 0
-5498 -5511 0
-5498 -5512 0
-5498 -5513 0
-5499 -5500 0
-5499 -5501 0
-5499 -5502 0
-5499 -5503 0
-5499 -5504 0
-5499 -5505 0
-5499 -5506 0
-5499 -5507 0
-5499 -5508 0
-5499 -5509 0
-5499 -5510 0
-5499 -5511 0
-5499 -5512 0
-5499 -5513 0
-5500 -5501 0
-5500 -5502 0
-5500 -5503 0
-5500 -5504 0
-5500 -5505 0
-5500 -5506 0
-5500 -5507 0
-5500 -5508 0
-5500 -5509 0
-5500 -5510 0
-5500 -5511 0
-5500 -5512 0
-5500 -5513 0
-5501 -5502 0
-5501 -5503 0
-5501 -5504 0
-5501 -5505 0
-5501 -5506 0
-5501 -5507 0
-5501 -5508 0
-5501 -5509 0
-5501 -5510 0
-5501 -5511 0
-5501 -5512 0
-5501 -5513 0
-5502 -5503 0
-5502 -5504 0
-5502 -5505 0
-5502 -5506 0
-5502 -5507 0
-5502 -5508 0
-5502 -5509 0
-5502 -5510 0
-5502 -5511 0
-5502 -5512 0
-5502 -5513 0
-5503 -5504 0
-5503 -5505 0
-5503 -5506 0
-5503 -5507 0
-5503 -5508 0
-5503 -5509 0
-5503 -5510 0
-5503 -5511 0
-5503 -5512 0
-5503 -5513 0
-5504 -5505 0
-5504 -5506 0
-5504 -5507 0
-5504 -5508 0
-5504 -5509 0
-5504 -5510 0
-5504 -5511 0
-5504 -5512 0
-5504 -5513 0
-5505 -5506 0
-5505 -5507 0
-5505 -5508 0
-5505 -5509 0
-5505 -5510 0
-5505 -5511 0
-5505 -5512 0
-5505 -5513 0
-5506 -5507 0
-5506 -5508 0
-5506 -5509 0
-5506 -5510 0
-5506 -5511 0
-5506 -5512 0
-5506 -5513 0
-5507 -5508 0
-5507 -5509 0
-5507 -5510 0
-5507 -5511 0
-5507 -5512 0
-5507 -5513 0
-5508 -5509 0
-5508 -5510 0
-5508 -5511 0
-5508 -5512 0
-5508 -5513 0
-5509 -5510 0
-5509 -5511 0
-5509 -5512 0
-5509 -5513 0
-5510 -5511 0
-5510 -5512 0
-5510 -5513 0
-5511 -5512 0
-5511 -5513 0
-5512 -5513 0
